num_offers = 40;
num_halls = 10;
start=[53,25,23,43,95,24,61,72,37,75,43,77,2,25,47,2,50,3,47,63,45,9,8,10,50,18,63,49,15,12,14,9,64,41,59,59,55,4,30,33];
end=[69,97,55,76,98,37,80,99,44,79,83,90,16,77,74,55,55,81,91,73,89,71,36,63,85,68,78,91,61,65,89,44,72,61,84,94,73,86,36,34];
price=[171,2602,2222,2916,92,576,210,450,421,433,1540,517,218,725,2586,4791,304,3388,684,195,3395,1521,2533,2389,542,1943,761,3130,1934,3151,1745,1235,793,2016,1975,1927,772,3444,150,128];
requirement=[625,667,377,809,657,208,457,762,204,985,382,504,998,794,1000,357,761,387,305,200,633,729,966,683,689,232,638,447,737,682,479,438,519,972,305,324,478,324,362,383];
capacity=[382,941,989,978,642,566,845,332,220,877];
